c description: Random 7-CNF over 7 variables and 1 clauses
c generator: CNFgen (0.9.0)
c copyright: (C) 2012-2020 Massimo Lauria <massimo.lauria@uniroma1.it>
c url: https://massimolauria.net/cnfgen
c command line: cnfgen -o ./sat_database/yes/tiny/7/cnf.cnf randkcnf 7 7 1
c
p cnf 7 1
-1 -2 3 -4 -5 6 -7 0
